SPARKNaCl/why3-cvc5/sparknacl-sign.adb_170_54_division_check_1.smt2
;; produced by cvc5.drv ;;
(set-logic ALL)
(set-info :smt-lib-version 2.6)
;;; generated by SMT-LIB2 driver
;;; SMT-LIB2 driver: bit-vectors, common part
;;; SMT-LIB2: integer arithmetic
;; "lsr"
(declare-fun lsr ((_ BitVec 8)
  Int) (_ BitVec 8))

;; "pow2"
(declare-fun pow2 (Int) Int)

(declare-const two_power_size_minus_one Int)

;; "two_power_size_minus_one_val"
(assert (= two_power_size_minus_one (pow2 (- 8 1))))

;; "lsr_bv_is_lsr"
(assert
  (forall ((x (_ BitVec 8)) (n (_ BitVec 8)))
    (= (bvlshr x n) (lsr x (bv2nat n)))))

;; "min"
(define-fun min ((x Int) (y Int)) Int
  (ite (<= x y) x y))

;; "max"
(define-fun max ((x Int) (y Int)) Int
  (ite (<= x y) y x))

;; "Min_r"
(assert (forall ((x Int) (y Int)) (=> (<= y x) (= (min x y) y))))

;; "Max_l"
(assert (forall ((x Int) (y Int)) (=> (<= y x) (= (max x y) x))))

;; "Min_comm"
(assert (forall ((x Int) (y Int)) (= (min x y) (min y x))))

;; "Max_comm"
(assert (forall ((x Int) (y Int)) (= (max x y) (max y x))))

;; "Min_assoc"
(assert
  (forall ((x Int) (y Int) (z Int)) (= (min (min x y) z) (min x (min y z)))))

;; "Max_assoc"
(assert
  (forall ((x Int) (y Int) (z Int)) (= (max (max x y) z) (max x (max y z)))))

(declare-const two_power_size_minus_one1 Int)

;; "two_power_size_minus_one_val"
(assert (= two_power_size_minus_one1 (pow2 (- 16 1))))

(declare-sort gf16_normal_limb 0)

;; "to_rep"
(declare-fun to_rep (gf16_normal_limb) (_ BitVec 16))

;; "of_rep"
(declare-fun of_rep ((_ BitVec 16)) gf16_normal_limb)

;; "inversion_axiom"
(assert
  (forall ((x gf16_normal_limb))
    (! (= (of_rep (to_rep x)) x) :pattern ((to_rep x)) )))

;; "range_axiom"
(assert true)

;; "coerce_axiom"
(assert
  (forall ((x (_ BitVec 16)))
    (! (= (to_rep (of_rep x)) x) :pattern ((to_rep (of_rep x))) )))

(declare-sort map1 0)

;; "has_bounds"
(declare-fun has_bounds (map1
  Int
  Int) Bool)

;; "get"
(declare-fun get (map1
  Int) gf16_normal_limb)

(declare-sort map2 0)

;; "has_bounds"
(declare-fun has_bounds1 (map2
  Int
  Int) Bool)

;; "get"
(declare-fun get1 (map2
  Int) map1)

;; "dynamic_invariant"
(define-fun dynamic_invariant ((temp___expr_683 map2) (temp___is_init_679 Bool) (temp___skip_constant_680 Bool) (temp___do_toplevel_681 Bool) (temp___do_typ_inv_682 Bool)) Bool
  (and
    (has_bounds1 temp___expr_683 0 3)
    (forall ((temp___684 Int))
      (=>
        (and (<= 0 temp___684) (<= temp___684 3))
        (has_bounds (get1 temp___expr_683 temp___684) 0 15)))))

(declare-const q map2)

(declare-sort byte 0)

;; "to_rep"
(declare-fun to_rep1 (byte) (_ BitVec 8))

;; "of_rep"
(declare-fun of_rep1 ((_ BitVec 8)) byte)

;; "inversion_axiom"
(assert
  (forall ((x byte)) (! (= (of_rep1 (to_rep1 x)) x) :pattern ((to_rep1 x)) )))

;; "range_axiom"
(assert true)

;; "coerce_axiom"
(assert
  (forall ((x (_ BitVec 8)))
    (! (= (to_rep1 (of_rep1 x)) x) :pattern ((to_rep1 (of_rep1 x))) )))

(declare-sort map3 0)

;; "has_bounds"
(declare-fun has_bounds2 (map3
  Int
  Int) Bool)

;; "get"
(declare-fun get2 (map3
  Int) byte)

(declare-const s map3)

(declare-const gf_0 map1)

(declare-const gf_1 map1)

;; "sparknacl__gf_0__aggregate_def"
(declare-fun sparknacl__gf_0__aggregate_def ((_ BitVec 16)) map1)

;; "sparknacl__gf_1__aggregate_def"
(declare-fun sparknacl__gf_1__aggregate_def ((_ BitVec 16)
  (_ BitVec 16)) map1)

;; "temp_____aggregate_def_1974"
(declare-fun temp_____aggregate_def_1974 (map1
  map1
  map1
  map1) map2)

;; "gf_0__def_axiom"
(assert
  (= gf_0 (let ((temp___325qtunused (sparknacl__gf_0__aggregate_def #x0000)))
            (sparknacl__gf_0__aggregate_def #x0000))))

;; "def_axiom"
(assert
  (forall ((temp___321 (_ BitVec 16)))
    (let ((temp___322 (sparknacl__gf_0__aggregate_def temp___321)))
      (and
        (has_bounds temp___322 0 15)
        (forall ((temp___323 Int))
          (! (=>
               (and (<= 0 temp___323) (<= temp___323 15))
               (= (to_rep (get temp___322 temp___323)) temp___321)) :pattern (
          (get
            temp___322
            temp___323)) ))))))

;; "gf_1__def_axiom"
(assert
  (= gf_1 (let ((temp___332qtunused (sparknacl__gf_1__aggregate_def
                                      #x0001
                                      #x0000)))
            (sparknacl__gf_1__aggregate_def #x0001 #x0000))))

;; "def_axiom"
(assert
  (forall ((temp___327 (_ BitVec 16)) (temp___328 (_ BitVec 16)))
    (let ((temp___329 (sparknacl__gf_1__aggregate_def temp___327 temp___328)))
      (and
        (and
          (= (to_rep (get temp___329 0)) temp___327)
          (=> (and (<= 0 0) (<= 0 15)) (has_bounds temp___329 0 15)))
        (forall ((temp___330 Int))
          (! (=>
               (and (<= 0 temp___330) (<= temp___330 15))
               (=>
                 (not (= temp___330 0))
                 (= (to_rep (get temp___329 temp___330)) temp___328))) :pattern (
          (get
            temp___329
            temp___330)) ))))))

;; Goal "def'vc"
;; File "sparknacl-sign.adb", line 67, characters 0-0
(assert
  (not
  (forall ((lp map2) (lq map2))
    (=>
      (has_bounds gf_0 0 15)
      (forall ((temp___2022 map1))
        (=>
          (and
            (and
              (has_bounds temp___2022 0 15)
              (forall ((temp___324 Int))
                (! (=>
                     (and (<= 0 temp___324) (<= temp___324 15))
                     (= (to_rep (get temp___2022 temp___324)) #x0000)) :pattern (
                (get
                  temp___2022
                  temp___324)) )))
            (= temp___2022 (sparknacl__gf_0__aggregate_def #x0000)))
          (=>
            (= temp___2022 gf_0)
            (=>
              (has_bounds gf_1 0 15)
              (forall ((temp___2028 map1))
                (=>
                  (and
                    (and
                      (and
                        (= (to_rep (get temp___2028 0)) #x0001)
                        (has_bounds temp___2028 0 15))
                      (forall ((temp___331 Int))
                        (! (=>
                             (and (<= 0 temp___331) (<= temp___331 15))
                             (=>
                               (not (= temp___331 0))
                               (= (to_rep (get temp___2028 temp___331)) #x0000))) :pattern (
                        (get
                          temp___2028
                          temp___331)) )))
                    (= temp___2028 (sparknacl__gf_1__aggregate_def
                                     #x0001
                                     #x0000)))
                  (=>
                    (= temp___2028 gf_1)
                    (=>
                      (dynamic_invariant q true false true true)
                      (=>
                        (has_bounds2 s 0 31)
                        (=>
                          (dynamic_invariant lp false false true true)
                          (=>
                            (dynamic_invariant lq false false true true)
                            (let ((o gf_0))
                              (let ((o1 gf_1))
                                (let ((o2 gf_1))
                                  (let ((o3 gf_0))
                                    (forall ((temp___1982 map2))
                                      (=>
                                        (and
                                          (and
                                            (and
                                              (and
                                                (= (get1 temp___1982 0) o3)
                                                (= (get1 temp___1982 1) o2))
                                              (and
                                                (= (get1 temp___1982 2) o1)
                                                (= (get1 temp___1982 3) o)))
                                            (has_bounds1 temp___1982 0 3))
                                          (= temp___1982 (temp_____aggregate_def_1974
                                                           o3
                                                           o2
                                                           o1
                                                           o)))
                                        (forall ((lp1 map2))
                                          (=>
                                            (= lp1 temp___1982)
                                            (forall ((lq1 map2))
                                              (=>
                                                (= lq1 q)
                                                (forall ((i Int))
                                                  (=>
                                                    (= i 31)
                                                    (=>
                                                      (= (and (ite (<= 0 i)
                                                                true
                                                                false) 
                                                      (ite (<= i 31)
                                                        true
                                                        false)) true)
                                                      (forall ((lp2 map2) (lq2 map2) (i1 Int))
                                                        (=>
                                                          (= (and (ite 
                                                                    (and
                                                                    (dynamic_invariant
                                                                    lp2
                                                                    false
                                                                    true
                                                                    true
                                                                    true)
                                                                    (dynamic_invariant
                                                                    lq2
                                                                    false
                                                                    true
                                                                    true
                                                                    true))
                                                                    true
                                                                    false) 
                                                          (ite (and
                                                                 (<= 0 i1)
                                                                 (<= i1 31))
                                                            true
                                                            false)) true)
                                                          (forall ((o4 (_ BitVec 8)))
                                                            (=>
                                                              (= (to_rep1
                                                                   (get2
                                                                    s
                                                                    i1)) o4)
                                                              (forall 
                                                                ((cb (_ BitVec 8)))
                                                                (=>
                                                                  (= cb o4)
                                                                  (forall 
                                                                    ((j Int))
                                                                    (=>
                                                                    (= j 7)
                                                                    (=>
                                                                    (= (and 
                                                                    (ite (<= 0 j)
                                                                    true
                                                                    false) 
                                                                    (ite (<= j 7)
                                                                    true
                                                                    false)) true)
                                                                    (forall 
                                                                    ((lp3 map2) (lq3 map2) (j1 Int))
                                                                    (=>
                                                                    (= (and 
                                                                    (ite 
                                                                    (and
                                                                    (dynamic_invariant
                                                                    lp3
                                                                    false
                                                                    true
                                                                    true
                                                                    true)
                                                                    (dynamic_invariant
                                                                    lq3
                                                                    false
                                                                    true
                                                                    true
                                                                    true))
                                                                    true
                                                                    false) 
                                                                    (ite 
                                                                    (and
                                                                    (<= 0 j1)
                                                                    (<= j1 7))
                                                                    true
                                                                    false)) true)
                                                                    (forall 
                                                                    ((o5 (_ BitVec 8)))
                                                                    (=>
                                                                    (ite (< j1 8)
                                                                    (= o5 (bvlshr cb ((_ int2bv 8) j1)))
                                                                    (= o5 #x00))
                                                                    (not
                                                                    (= #x02 #x00)))))))))))))))))))))))))))))))))))))))))))

(check-sat)
